Traveling Salesman Problem/TSP_generados/Aleatorio1621103288_8.tsp
NAME: Aleatorio1621103288_8.tsp
COMMENT: Randomly generated scenario
TYPE: TSP
DIMENSION: 8
EDGE_WEIGHT_TYPE: ATT
NODE_COORD_SECTION
1 21.25 32.86
2 18.79 33.66
3 42.5 39.43
4 16.01 41.21
5 20.33 6.59
6 28.01 48.03
7 36.34 14.88
8 8.78 40.27
