Traveling Salesman Problem/TSP_generados/Aleatorio1621103288_8.opt.tour
NAME: Aleatorio1621103288_8.opt.tour
COMMENT: Optimal solution for Aleatorio1621103288_8 (122.15183651440715)
TYPE: TOUR
DIMENSION: 8
TOUR_SECTION
1 5 7 3 6 4 8 2
-1
EOF
